6 24 4 10
4 12 16 16 5 18 16 7 18 18 17 16 18 4 13 9 16 12 7 14 18 16 17 5 
15.34 11.67 3.58 9.75 6.24 10.57 1.7 5.76 6.5 9.42 15.19 2.01 0.33 0.66 8.17 8.33 6.65 14.45 10.03 12.71 0.49 0.32 8.82 12.65 
14.16 10.06 11.74 2.79 6.53 14.74 1.24 5.32 1.83 13.09 3.85 11.38 2.35 3.04 13.16 1.41 14.36 14.09 0.12 8.21 8.73 6.91 2.33 5.82 
10.2 11.32 0.43 11 13.16 3.4 13.09 9.39 14.11 11.93 13.58 3.24 6.88 13.43 2.19 6.67 3.42 9.15 6.17 13.65 6.39 5.27 5.46 0.97 
12.29 7.93 3.25 4.05 11.57 10.56 1.42 8.7 7.09 15.72 1.36 13.79 15.12 6.37 7.69 8.3 8.49 4.77 2.98 6.23 9.01 1.54 10.29 11.76 
8 8 8 8 8 8 8 8 8 8 8 8 8 8 8 8 8 8 8 8 8 8 8 8 
6.01 6.14 8.45 0.86 6.47 14.54 3.49 9.04 0.64 6.04 12.99 14.54 7.96 9 1.27 15.82 5.78 11.29 1.17 12.62 0.4 14.83 9.31 3.2 
1 1 1 1 1 1 1 1 1 1 1 1 1 1 1 1 1 1 1 1 1 1 1 1 
1 1 1 1 1 1 1 1 1 1 1 1 1 1 1 1 1 1 1 1 1 1 1 1 
1 1 1 1 1 1 1 1 1 1 1 1 1 1 1 1 1 1 1 1 1 1 1 1 
1 1 1 1 1 1 1 1 1 1 1 1 1 1 1 1 1 1 1 1 1 1 1 1 
1 1 1 1 1 1 1 1 1 1 1 1 1 1 1 1 1 1 1 1 1 1 1 1 
1 1 1 1 1 1 1 1 1 1 1 1 1 1 1 1 1 1 1 1 1 1 1 1 
0.01 0.01 0.01 0.01 0.01 0.01 0.01 0.01 0.01 0.01 0.01 0.01 0.01 0.01 0.01 0.01 0.01 0.01 0.01 0.01 0.01 0.01 0.01 0.01 
0.02 0.02 0.02 0.02 0.02 0.02 0.02 0.02 0.02 0.02 0.02 0.02 0.02 0.02 0.02 0.02 0.02 0.02 0.02 0.02 0.02 0.02 0.02 0.02 
0.03 0.03 0.03 0.03 0.03 0.03 0.03 0.03 0.03 0.03 0.03 0.03 0.03 0.03 0.03 0.03 0.03 0.03 0.03 0.03 0.03 0.03 0.03 0.03 
0.04 0.04 0.04 0.04 0.04 0.04 0.04 0.04 0.04 0.04 0.04 0.04 0.04 0.04 0.04 0.04 0.04 0.04 0.04 0.04 0.04 0.04 0.04 0.04 
0.05 0.05 0.05 0.05 0.05 0.05 0.05 0.05 0.05 0.05 0.05 0.05 0.05 0.05 0.05 0.05 0.05 0.05 0.05 0.05 0.05 0.05 0.05 0.05 
1 1 1 1 1 1 1 1 1 1 1 1 1 1 1 1 1 1 1 1 1 1 1 1 
